465
1631
1041
1101
1928
228
237
589
1539
1649
300
1468
640
1436
269
306
1413
903
139
1898
472
361
1334
96
1855
564
167
1303
1829
401
776
1874
1449
1831
516
151
1667
1137
1034
314
217
1424
1381
1602
1254
1126
1798
1860
1694
686
